100 151600
98 75 42 55 86 73 20 17 78 94 90 10 15 59 31 53 4 87 32 97 52 19 70 11 30 41 88 72 81 63 2 24 46 18 22 67 76 89 61 96 6 1 37 93 8 16 47 92 27 66 48 64 35 14 91 71 34 68 44 80 43 7 29 69 60 84 21 38 99 56 79 54 25 95 83 9 51 23 77 13 82 50 5 49 74 36 26 12 85 100 58 65 45 39 40 62 3 28 33 57 
